100 76542

 352 515
838 589
67 790
943 657
987 609
89 412
292 474
373 415
777 843
596 231
645 6
758 652
118 203
834 891
706 860
578 77
890 107
701 496
202 610
430 275
495 717
56 595
955 325
129 26
698 751
507 215
26 835
925 421
852 578
525 873
229 864
122 372
364 209
256 776
507 434
967 193
575 905
890 199
651 26
476 21
855 623
472 662
869 312
292 321
129 340
856 681
588 59
890 930
938 223
54 1000
501 172
375 772
626 224
794 81
281 875
557 859
709 404
135 703
815 558
607 853
950 316
340 524
109 486
507 354
86 892
970 166
39 150
754 577
526 658
369 195
66 391
623 947
586 247
281 669
911 741
305 449
450 938
544 737
101 458
933 570
375 693
81 593
388 879
601 357
514 300
695 214
56 38
285 44
820 871
80 679
856 661
92 615
835 850
361 481
613 871
153 360
67 927
216 699
128 258
313 565
